p cnf 130 94
c p distribution  0.875 0.125
c p distribution  0.875 0.125
c p distribution  0.875 0.125
c p distribution  0.875 0.125
c p distribution  0.875 0.125
c p distribution  0.875 0.125
c p distribution  0.875 0.125
c p distribution  0.875 0.125
c p distribution  0.875 0.125
c p distribution  0.875 0.125
c p distribution  0.875 0.125
c p distribution  0.875 0.125
c p distribution  0.875 0.125
c p distribution  0.875 0.125
c p distribution  0.875 0.125
c p distribution  0.875 0.125
c p distribution  0.875 0.125
c p distribution  0.875 0.125
c p distribution  0.875 0.125
c p distribution  0.875 0.125
c p distribution  0.875 0.125
c p distribution  0.875 0.125
c p distribution  0.875 0.125
c p distribution  0.875 0.125
c p distribution  0.875 0.125
c p distribution  0.875 0.125
c p distribution  0.875 0.125
c p distribution  0.875 0.125
c p distribution  0.875 0.125
c p distribution  0.875 0.125
c p distribution  0.875 0.125
c p distribution  0.875 0.125
c p distribution  0.875 0.125
c p distribution  0.875 0.125
c p distribution  0.875 0.125
c p distribution  0.875 0.125
c p distribution  0.875 0.125
c p distribution  0.875 0.125
c p distribution  0.875 0.125
c p distribution  0.875 0.125
c p distribution  0.875 0.125
c p distribution  0.875 0.125
c p distribution  0.875 0.125
c p distribution  0.875 0.125
c p distribution  0.875 0.125
c p distribution  0.875 0.125
104 0
-100 0
93 -118 -1 0
118 -93 -1 0
102 -104 -3 0
104 -102 -3 0
101 -121 -5 0
121 -101 -5 0
106 -101 -7 0
101 -106 -7 0
113 -108 -9 0
108 -113 -9 0
125 -119 -11 0
119 -125 -11 0
115 -98 -13 0
98 -115 -13 0
118 -112 -15 0
112 -118 -15 0
116 -95 -17 0
95 -116 -17 0
100 -112 -19 0
112 -100 -19 0
107 -105 -21 0
105 -107 -21 0
97 -123 -23 0
123 -97 -23 0
116 -101 -25 0
101 -116 -25 0
110 -100 -27 0
100 -110 -27 0
130 -117 -29 0
117 -130 -29 0
98 -106 -31 0
106 -98 -31 0
126 -122 -33 0
122 -126 -33 0
125 -121 -35 0
121 -125 -35 0
127 -98 -37 0
98 -127 -37 0
124 -118 -39 0
118 -124 -39 0
101 -125 -41 0
125 -101 -41 0
105 -108 -43 0
108 -105 -43 0
103 -112 -45 0
112 -103 -45 0
120 -93 -47 0
93 -120 -47 0
96 -110 -49 0
110 -96 -49 0
100 -118 -51 0
118 -100 -51 0
93 -107 -53 0
107 -93 -53 0
95 -111 -55 0
111 -95 -55 0
114 -115 -57 0
115 -114 -57 0
101 -102 -59 0
102 -101 -59 0
93 -128 -61 0
128 -93 -61 0
105 -108 -63 0
108 -105 -63 0
122 -118 -65 0
118 -122 -65 0
111 -109 -67 0
109 -111 -67 0
94 -97 -69 0
97 -94 -69 0
124 -129 -71 0
129 -124 -71 0
99 -115 -73 0
115 -99 -73 0
100 -107 -75 0
107 -100 -75 0
122 -110 -77 0
110 -122 -77 0
124 -118 -79 0
118 -124 -79 0
113 -109 -81 0
109 -113 -81 0
130 -101 -83 0
101 -130 -83 0
96 -100 -85 0
100 -96 -85 0
124 -97 -87 0
97 -124 -87 0
93 -129 -89 0
129 -93 -89 0
117 -123 -91 0
123 -117 -91 0

